sat
(
(define-fun N () String "")
(define-fun T () String "aabaaaabbbaa")
(define-fun I () String "")
(define-fun H () String "")
(define-fun R () String "")
(define-fun K () String "")
(define-fun U () String "")
(define-fun G () String "ababbb")
(define-fun L () String "")
(define-fun M () String "")
(define-fun P () String "")
(define-fun Q () String "")
)
